66
36
101
78
29
346
0
0
73
44
0
21
127
28
26
198
0
34
51
0
21
69
31
89
0
12
242
25
37
26
49
63
255
35
120
118
364
57
73
37
33
614
257
105
298
55
133
0
40
383
12
110
46
151
313
121
140
30
218
33
48
95
23
22
63
0
169
60
0
30
38
147
83
124
245
78
69
65
26
116
47
24
20
51
45
0
106
73
89
25
34
29
254
0
33
217
54
76
36
26
